c nIsolatedPIs 30
c maxPI 30
p cnf 70 121
c gate 31 27 28 0
27 -31 0
28 -31 0
-27 -28 31 0
c gate 32 29 31 0
29 -32 0
31 -32 0
-29 -31 32 0
c gate 33 1 12 0
1 -33 0
12 -33 0
-1 -12 33 0
c gate 34 23 24 0
23 -34 0
24 -34 0
-23 -24 34 0
c gate 35 25 26 0
25 -35 0
26 -35 0
-25 -26 35 0
c gate 36 34 35 0
34 -36 0
35 -36 0
-34 -35 36 0
c gate 37 33 36 0
33 -37 0
36 -37 0
-33 -36 37 0
c gate 38 32 37 0
32 -38 0
37 -38 0
-32 -37 38 0
c gate 39 -3 -14 0
-3 -39 0
-14 -39 0
3 14 39 0
c gate 40 -38 39 0
-38 -40 0
39 -40 0
38 -39 40 0
c gate 41 -30 -40 0
-30 -41 0
-40 -41 0
30 40 41 0
c gate 42 -28 -29 0
-28 -42 0
-29 -42 0
28 29 42 0
c gate 43 30 42 0
30 -43 0
42 -43 0
-30 -42 43 0
c gate 44 -12 -23 0
-12 -44 0
-23 -44 0
12 23 44 0
c gate 45 -24 -25 0
-24 -45 0
-25 -45 0
24 25 45 0
c gate 46 -26 -27 0
-26 -46 0
-27 -46 0
26 27 46 0
c gate 47 45 46 0
45 -47 0
46 -47 0
-45 -46 47 0
c gate 48 44 47 0
44 -48 0
47 -48 0
-44 -47 48 0
c gate 49 43 48 0
43 -49 0
48 -49 0
-43 -48 49 0
c gate 50 -41 -49 0
-41 -50 0
-49 -50 0
41 49 50 0
c gate 51 6 7 0
6 -51 0
7 -51 0
-6 -7 51 0
c gate 52 -8 9 0
-8 -52 0
9 -52 0
8 -9 52 0
c gate 53 51 52 0
51 -53 0
52 -53 0
-51 -52 53 0
c gate 54 -2 3 0
-2 -54 0
3 -54 0
2 -3 54 0
c gate 55 -4 -5 0
-4 -55 0
-5 -55 0
4 5 55 0
c gate 56 54 55 0
54 -56 0
55 -56 0
-54 -55 56 0
c gate 57 53 56 0
53 -57 0
56 -57 0
-53 -56 57 0
c gate 58 -19 20 0
-19 -58 0
20 -58 0
19 -20 58 0
c gate 59 21 22 0
21 -59 0
22 -59 0
-21 -22 59 0
c gate 60 58 59 0
58 -60 0
59 -60 0
-58 -59 60 0
c gate 61 -15 16 0
-15 -61 0
16 -61 0
15 -16 61 0
c gate 62 17 18 0
17 -62 0
18 -62 0
-17 -18 62 0
c gate 63 61 62 0
61 -63 0
62 -63 0
-61 -62 63 0
c gate 64 -10 11 0
-10 -64 0
11 -64 0
10 -11 64 0
c gate 65 13 -14 0
13 -65 0
-14 -65 0
-13 14 65 0
c gate 66 64 65 0
64 -66 0
65 -66 0
-64 -65 66 0
c gate 67 63 66 0
63 -67 0
66 -67 0
-63 -66 67 0
c gate 68 60 67 0
60 -68 0
67 -68 0
-60 -67 68 0
c gate 69 57 68 0
57 -69 0
68 -69 0
-57 -68 69 0
c gate 70 -50 69 0
-50 -70 0
69 -70 0
50 -69 70 0
c PO
70 0
